Route #1: 17 40 12 26
Route #2: 4
Route #3: 6 33 1 43 41
Route #4: 45 29 48 30
Route #5: 34 46 8 35 7
Route #6: 31 10 38
Route #7: 27 13 15 20 37 5
Route #8: 16 49 24 18 25 39
Route #9: 11 14 19
Route #10: 2 28 22 42 23
Route #11: 3 44 32 9
Route #12: 21 47 36
cost: 767.7305873215623
